NAME : local_10
TYPE : ATSP
DIMENSION : 13
EDGE_WEIGHT_TYPE : EXPLICIT
EDGE_WEIGHT_FORMAT : FULL_MATRIX
EDGE_WEIGHT_SECTION
0 10000000 10000000 10000000 10000000 618 905 610 10000000 10000000 326 10000000 836 
0 0 10000000 839 192 10000000 10000000 10000000 10000000 408 10000000 10000000 10000000 
0 10000000 0 10000000 10000000 621 325 10000000 742 10000000 10000000 668 10000000 
0 839 10000000 0 817 10000000 958 10000000 321 480 10000000 652 10000000 
0 192 10000000 817 0 10000000 10000000 10000000 10000000 417 10000000 10000000 10000000 
0 10000000 621 10000000 10000000 0 425 908 10000000 10000000 734 866 923 
0 10000000 325 958 10000000 425 0 925 664 10000000 10000000 492 790 
0 10000000 10000000 10000000 10000000 908 925 0 10000000 10000000 930 950 323 
0 10000000 742 321 10000000 10000000 664 10000000 0 760 10000000 442 10000000 
0 408 10000000 480 417 10000000 10000000 10000000 798 0 10000000 932 10000000 
0 10000000 10000000 10000000 10000000 734 10000000 930 10000000 10000000 0 10000000 10000000 
0 10000000 668 652 10000000 866 492 896 442 932 10000000 0 634 
0 10000000 10000000 10000000 10000000 10000000 10000000 10000000 10000000 10000000 10000000 10000000 0 
EOF